\ Equation counts
\     Total        E        G        L        N        X        C        B
\         0        0        0        0        0        0        0        0
\ 
\ Variable counts
\                  x        b        i      s1s      s2s       sc       si
\     Total     cont   binary  integer     sos1     sos2    scont     sint
\       496        0      496        0        0        0        0        0
\ 
\ Nonzero counts
\     Total    const       NL      DLL
\       496        0      496        0
\ 
Maximize
 obj: 0 b2 + 0 b3 + 0 b4 + 0 b5 + 0 b6 + 0 b7 + 0 b8 + 0 b9 + 0 b10 + 0 b11 + 0 b12 + 0 b13 + 0 b14 + 0 b15 
  + 0 b16 + 0 b17 + 0 b18 + 0 b19 + 0 b20 + 0 b21 + 0 b22 + 0 b23 + 0 b24 + 0 b25 + 0 b26 + 0 b27 + 0 b28 
  + 0 b29 + 0 b30 + 0 b31 + 0 b32 + 0 b33 + 0 b34 + 0 b35 + 0 b36 + 0 b37 + 0 b38 + 0 b39 + 0 b40 + 0 b41 
  + 0 b42 + 0 b43 + 0 b44 + 0 b45 + 0 b46 + 0 b47 + 0 b48 + 0 b49 + 0 b50 + 0 b51 + 0 b52 + 0 b53 + 0 b54 
  + 0 b55 + 0 b56 + 0 b57 + 0 b58 + 0 b59 + 0 b60 + 0 b61 + 0 b62 + 0 b63 + 0 b64 + 0 b65 + 0 b66 + 0 b67 
  + 0 b68 + 0 b69 + 0 b70 + 0 b71 + 0 b72 + 0 b73 + 0 b74 + 0 b75 + 0 b76 + 0 b77 + 0 b78 + 0 b79 + 0 b80 
  + 0 b81 + 0 b82 + 0 b83 + 0 b84 + 0 b85 + 0 b86 + 0 b87 + 0 b88 + 0 b89 + 0 b90 + 0 b91 + 0 b92 + 0 b93 
  + 0 b94 + 0 b95 + 0 b96 + 0 b97 + 0 b98 + 0 b99 + 0 b100 + 0 b101 + 0 b102 + 0 b103 + 0 b104 + 0 b105 
  + 0 b106 + 0 b107 + 0 b108 + 0 b109 + 0 b110 + 0 b111 + 0 b112 + 0 b113 + 0 b114 + 0 b115 + 0 b116 
  + 0 b117 + 0 b118 + 0 b119 + 0 b120 + 0 b121 + 0 b122 + 0 b123 + 0 b124 + 0 b125 + 0 b126 + 0 b127 
  + 0 b128 + 0 b129 + 0 b130 + 0 b131 + 0 b132 + 0 b133 + 0 b134 + 0 b135 + 0 b136 + 0 b137 + 0 b138 
  + 0 b139 + 0 b140 + 0 b141 + 0 b142 + 0 b143 + 0 b144 + 0 b145 + 0 b146 + 0 b147 + 0 b148 + 0 b149 
  + 0 b150 + 0 b151 + 0 b152 + 0 b153 + 0 b154 + 0 b155 + 0 b156 + 0 b157 + 0 b158 + 0 b159 + 0 b160 
  + 0 b161 + 0 b162 + 0 b163 + 0 b164 + 0 b165 + 0 b166 + 0 b167 + 0 b168 + 0 b169 + 0 b170 + 0 b171 
  + 2 b172 + 2 b173 + 2 b174 + 2 b175 + 2 b176 - 2 b177 + 4 b178 + 2 b179 + 2 b180 - 2 b181 + 4 b182 
  + 2 b183 + 2 b184 + 2 b185 + 2 b186 - 2 b187 + 2 b188 + 2 b189 + 2 b190 - 2 b191 + 2 b192 + 2 b193 
  + 2 b194 + 2 b195 + 2 b196 - 2 b197 + 2 b198 + 2 b199 + 2 b200 + 2 b201 - 2 b202 + 4 b203 + 2 b204 
  + 2 b205 + 2 b206 + 2 b207 + 2 b208 + 2 b209 + 2 b210 + 4 b211 + 4 b212 + 2 b213 + 2 b214 + 2 b215 
  + 2 b216 + 2 b217 + 2 b218 + 2 b219 + 2 b220 + 2 b221 + 4 b222 + 4 b223 + 2 b224 + 4 b225 + 4 b226 
  + 2 b227 + 2 b228 + 4 b229 + 2 b230 + 2 b231 + 2 b232 + 2 b233 + 2 b234 + 4 b235 + 2 b236 + 2 b237 
  + 4 b238 + 2 b239 + 2 b240 + 4 b241 + 2 b242 - 2 b243 + 4 b244 + 2 b245 + 4 b246 + 2 b247 + 2 b248 
  + 2 b249 + 2 b250 - 2 b251 + 4 b252 - 2 b253 + 2 b254 + 2 b255 + 4 b256 + 2 b257 + 2 b258 + 2 b259 
  + 2 b260 - 2 b261 + 2 b262 + 2 b263 + 4 b264 + 4 b265 + 4 b266 + 4 b267 + 2 b268 + 2 b269 + 2 b270 
  - 2 b271 - 2 b272 - 2 b273 + 2 b274 + 2 b275 + 4 b276 + 4 b277 + 2 b278 + 2 b279 + 2 b280 + 2 b281 
  + 2 b282 + 2 b283 - 2 b284 + 4 b285 + 2 b286 + 4 b287 + 4 b288 + 4 b289 + 4 b290 + 2 b291 + 4 b292 
  - 2 b293 + 4 b294 + 2 b295 + 2 b296 + 2 b297 + 2 b298 - 2 b299 - 2 b300 - 4 b301 + 4 b302 + 2 b303 
  + 4 b304 + 2 b305 + 2 b306 + 2 b307 + 2 b308 + 4 b309 + 2 b310 + 2 b311 - 2 b312 - 2 b313 + 2 b314 
  + 4 b315 + 2 b316 + 4 b317 + 4 b318 + 2 b319 + 4 b320 + 4 b321 + 2 b322 + 2 b323 + 2 b324 + 2 b325 
  - 2 b326 - 2 b327 - 4 b328 + 4 b329 + 2 b330 - 2 b331 + 4 b332 + 2 b333 + 2 b334 - 2 b335 + 2 b336 
  + 2 b337 - 4 b338 - 2 b339 + 4 b340 + 4 b341 + 4 b342 + 4 b343 + 4 b344 + 2 b345 + 4 b346 - 2 b347 
  - 2 b348 + 2 b349 + 4 b350 + 2 b351 + 2 b352 + 2 b353 + 2 b354 + 4 b355 - 2 b356 + 4 b357 + 2 b358 
  - 2 b359 + 4 b360 - 2 b361 - 2 b362 + 4 b363 - 2 b364 + 2 b365 + 2 b366 + 2 b367 + 2 b368 - 2 b369 
  - 4 b370 + 2 b371 - 2 b372 + 4 b373 + 4 b374 + 4 b375 + 4 b376 + 4 b377 + 4 b378 - 2 b379 - 2 b380 
  + 2 b381 + 2 b382 + 4 b383 + 2 b384 + 2 b385 - 2 b386 + 2 b387 - 2 b388 + 2 b389 - 2 b390 + 4 b391 
  - 2 b392 - 2 b393 + 2 b394 - 2 b395 + 4 b396 + 2 b397 + 2 b398 + 2 b399 + 2 b400 + 2 b401 - 2 b402 
  - 4 b403 + 2 b404 - 2 b405 + 4 b406 + 2 b407 + 2 b408 + 4 b409 + 2 b410 - 2 b411 + 2 b412 + 2 b413 
  + 2 b414 + 4 b415 + 4 b416 + 4 b417 + 2 b418 + 2 b419 + 2 b420 - 2 b421 + 2 b422 + 2 b423 - 2 b424 
  + 4 b425 - 2 b426 - 2 b427 - 2 b428 + 4 b429 - 2 b430 + 2 b431 + 4 b432 - 2 b433 + 2 b434 + 2 b435 
  + 2 b436 + 2 b437 - 2 b438 - 4 b439 + 2 b440 - 4 b441 + 4 b442 + 2 b443 + 2 b444 + 2 b445 + 4 b446 
  + 4 b447 + 4 b448 + 4 b449 + 4 b450 - 2 b451 + 2 b452 + 2 b453 + 2 b454 + 2 b455 + 4 b456 + 2 b457 
  + 2 b458 + 2 b459 - 2 b460 + 2 b461 + 4 b462 - 2 b463 + 4 b464 - 2 b465 - 2 b466 + 4 b467 - 2 b468 
  + 2 b469 + 2 b470 + 4 b471 - 2 b472 + 4 b473 + 2 b474 + 2 b475 - 2 b476 + 2 b477 - 2 b478 + 2 b479 
  - 2 b480 + 4 b481 + 2 b482 + 2 b483 + 2 b484 + 2 b485 + 4 b486 + 4 b487 - 2 b488 + 4 b489 - 2 b490 
  + 2 b491 + 2 b492 + 2 b493 + 2 b494 + 2 b495 + 4 b496 - 2 b497 + [ 4 b2 * b3 - 4 b2 * b67 - 4 b2 * b223 
  + 4 b2 * b224 - 4 b3 * b221 - 4 b3 * b238 + 4 b3 * b441 + 4 b4 * b54 - 4 b4 * b242 + 4 b4 * b345 - 4 b4 * b377 
  - 4 b5 * b6 + 4 b5 * b293 + 4 b5 * b348 - 4 b5 * b414 + 4 b6 * b18 - 4 b6 * b290 + 4 b6 * b347 - 4 b7 * b172 
  - 4 b7 * b242 + 4 b7 * b382 + 4 b7 * b490 - 4 b8 * b71 + 4 b8 * b113 + 4 b8 * b255 - 4 b8 * b275 + 4 b9 * b10 
  + 4 b9 * b94 - 4 b9 * b102 - 4 b9 * b306 + 4 b10 * b73 - 4 b10 * b175 - 4 b10 * b176 - 4 b11 * b43 
  + 4 b11 * b177 + 4 b12 * b177 - 4 b12 * b459 + 4 b13 * b14 + 4 b13 * b112 - 4 b13 * b233 - 4 b13 * b276 
  - 4 b14 * b70 + 4 b14 * b143 - 4 b14 * b428 + 4 b15 * b16 + 4 b15 * b89 - 4 b15 * b281 - 4 b15 * b435 
  - 4 b16 * b174 - 4 b16 * b175 + 4 b16 * b365 + 4 b17 * b18 - 4 b17 * b172 + 4 b17 * b295 - 4 b17 * b416 
  - 4 b18 * b453 - 4 b18 * b456 - 4 b19 * b31 + 4 b19 * b181 + 4 b20 * b181 - 4 b20 * b420 + 4 b21 * b251 
  + 4 b21 * b274 - 4 b21 * b357 - 4 b21 * b464 + 4 b22 * b23 + 4 b22 * b107 - 4 b22 * b256 - 4 b22 * b304 
  - 4 b23 * b62 + 4 b23 * b139 - 4 b23 * b466 + 4 b24 * b25 - 4 b24 * b26 + 4 b24 * b81 - 4 b24 * b398 
  - 4 b25 * b173 - 4 b25 * b174 + 4 b25 * b397 + 4 b26 * b93 - 4 b26 * b182 + 4 b26 * b364 + 4 b27 * b28 
  - 4 b27 * b53 + 4 b27 * b312 - 4 b27 * b400 - 4 b28 * b58 - 4 b28 * b81 + 4 b28 * b82 - 4 b29 * b30 
  + 4 b29 * b379 + 4 b29 * b493 - 4 b29 * b494 + 4 b30 * b319 - 4 b30 * b450 + 4 b30 * b488 + 4 b31 * b32 
  + 4 b31 * b191 - 4 b31 * b231 - 4 b32 * b385 - 4 b33 * b34 + 4 b33 * b254 + 4 b33 * b271 - 4 b33 * b302 
  + 4 b34 * b124 + 4 b34 * b125 - 4 b34 * b202 + 4 b35 * b36 + 4 b35 * b100 - 4 b35 * b277 - 4 b35 * b332 
  - 4 b36 * b56 - 4 b36 * b114 + 4 b36 * b134 + 4 b37 * b38 + 4 b37 * b49 - 4 b37 * b178 - 4 b37 * b235 
  - 4 b38 * b100 + 4 b38 * b154 - 4 b38 * b233 + 4 b39 * b40 - 4 b39 * b60 + 4 b39 * b338 - 4 b39 * b367 
  - 4 b40 * b65 - 4 b40 * b183 + 4 b40 * b477 - 4 b41 * b312 + 4 b41 * b314 + 4 b41 * b338 - 4 b41 * b340 
  + 4 b42 * b109 + 4 b42 * b291 - 4 b42 * b380 - 4 b42 * b489 + 4 b43 * b44 + 4 b43 * b187 - 4 b43 * b250 
  - 4 b44 * b354 - 4 b45 * b46 + 4 b45 * b253 + 4 b45 * b299 - 4 b45 * b329 + 4 b46 * b133 - 4 b46 * b208 
  + 4 b46 * b386 + 4 b47 * b126 + 4 b47 * b253 - 4 b47 * b275 - 4 b47 * b464 - 4 b48 * b113 + 4 b48 * b160 
  + 4 b48 * b173 - 4 b48 * b192 - 4 b49 * b173 + 4 b49 * b434 - 4 b49 * b473 + 4 b50 * b51 - 4 b50 * b237 
  - 4 b50 * b336 + 4 b50 * b370 + 4 b51 * b65 - 4 b51 * b180 - 4 b51 * b236 - 4 b52 * b53 + 4 b52 * b83 
  + 4 b52 * b370 - 4 b52 * b373 + 4 b53 * b121 + 4 b53 * b284 + 4 b54 * b117 - 4 b54 * b288 - 4 b54 * b348 
  - 4 b55 * b219 + 4 b55 * b273 + 4 b55 * b326 - 4 b55 * b360 - 4 b56 * b254 + 4 b56 * b273 + 4 b56 * b427 
  - 4 b57 * b112 + 4 b57 * b166 + 4 b57 * b174 - 4 b57 * b188 + 4 b58 * b80 + 4 b58 * b209 - 4 b58 * b397 
  - 4 b59 * b60 + 4 b59 * b76 + 4 b59 * b403 - 4 b59 * b406 + 4 b60 * b128 + 4 b60 * b261 - 4 b61 * b232 
  + 4 b61 * b301 + 4 b61 * b356 - 4 b61 * b391 - 4 b62 * b274 + 4 b62 * b301 + 4 b62 * b392 - 4 b63 * b79 
  - 4 b63 * b107 + 4 b63 * b175 + 4 b63 * b431 - 4 b64 * b113 + 4 b64 * b140 - 4 b64 * b175 + 4 b64 * b259 
  + 4 b65 * b73 - 4 b65 * b365 - 4 b66 * b237 + 4 b66 * b372 + 4 b66 * b439 - 4 b66 * b442 + 4 b67 * b91 
  - 4 b67 * b342 + 4 b67 * b372 + 4 b68 * b149 - 4 b68 * b264 - 4 b68 * b409 + 4 b68 * b490 - 4 b69 * b252 
  + 4 b69 * b328 + 4 b69 * b388 - 4 b69 * b425 - 4 b70 * b302 + 4 b70 * b328 + 4 b70 * b361 + 4 b71 * b72 
  - 4 b71 * b178 + 4 b71 * b430 + 4 b72 * b165 - 4 b72 * b361 - 4 b72 * b395 - 4 b73 * b151 - 4 b73 * b334 
  - 4 b74 * b222 + 4 b74 * b405 + 4 b74 * b478 - 4 b74 * b481 - 4 b75 * b76 + 4 b75 * b84 - 4 b75 * b239 
  + 4 b75 * b405 - 4 b76 * b261 + 4 b76 * b443 + 4 b77 * b145 - 4 b77 * b241 - 4 b77 * b376 + 4 b77 * b451 
  - 4 b78 * b255 - 4 b78 * b329 + 4 b78 * b331 + 4 b78 * b359 + 4 b79 * b333 - 4 b79 * b394 + 4 b79 * b468 
  + 4 b80 * b306 - 4 b80 * b307 - 4 b80 * b309 + 4 b81 * b101 - 4 b81 * b336 - 4 b82 * b152 + 4 b82 * b221 
  - 4 b82 * b437 + 4 b83 * b156 - 4 b83 * b184 - 4 b83 * b284 - 4 b84 * b184 + 4 b84 * b204 - 4 b84 * b212 
  + 4 b85 * b142 - 4 b85 * b226 - 4 b85 * b344 + 4 b85 * b411 + 4 b86 * b202 - 4 b86 * b208 + 4 b86 * b423 
  - 4 b86 * b462 + 4 b87 * b99 - 4 b87 * b276 - 4 b87 * b360 + 4 b87 * b390 - 4 b88 * b99 + 4 b88 * b159 
  + 4 b88 * b188 - 4 b88 * b304 - 4 b89 * b310 - 4 b89 * b400 + 4 b89 * b433 - 4 b90 * b155 + 4 b90 * b400 
  - 4 b90 * b401 + 4 b90 * b478 - 4 b91 * b186 + 4 b91 * b199 - 4 b91 * b225 + 4 b92 * b137 - 4 b92 * b213 
  - 4 b92 * b317 + 4 b92 * b379 + 4 b93 * b468 - 4 b93 * b469 - 4 b93 * b471 - 4 b94 * b283 - 4 b94 * b367 
  + 4 b94 * b472 - 4 b95 * b162 + 4 b95 * b367 - 4 b95 * b368 + 4 b95 * b439 + 4 b96 * b189 - 4 b96 * b224 
  + 4 b96 * b284 - 4 b96 * b440 - 4 b97 * b104 - 4 b97 * b287 + 4 b97 * b347 + 4 b97 * b452 + 4 b98 * b110 
  - 4 b98 * b190 + 4 b98 * b245 - 4 b98 * b266 - 4 b99 * b330 + 4 b99 * b393 + 4 b100 * b393 - 4 b100 * b430 
  - 4 b101 * b235 + 4 b101 * b399 - 4 b101 * b471 + 4 b102 * b115 - 4 b102 * b336 + 4 b102 * b475 + 4 b103 * b193 
  - 4 b103 * b211 + 4 b103 * b313 - 4 b103 * b404 + 4 b104 * b105 - 4 b104 * b194 + 4 b104 * b488 - 4 b105 * b226 
  + 4 b105 * b262 - 4 b105 * b315 - 4 b106 * b165 + 4 b106 * b331 + 4 b106 * b463 - 4 b106 * b464 - 4 b107 * b278 
  + 4 b107 * b428 + 4 b108 * b198 - 4 b108 * b203 + 4 b108 * b339 - 4 b108 * b371 + 4 b109 * b213 - 4 b109 * b241 
  - 4 b109 * b242 - 4 b110 * b200 - 4 b111 * b169 + 4 b111 * b361 + 4 b111 * b424 - 4 b111 * b425 - 4 b112 * b257 
  + 4 b112 * b466 + 4 b113 * b114 - 4 b114 * b277 + 4 b114 * b392 + 4 b115 * b307 - 4 b115 * b363 - 4 b115 * b398 
  - 4 b116 * b117 + 4 b116 * b118 - 4 b116 * b205 + 4 b116 * b243 + 4 b117 * b149 - 4 b117 * b320 - 4 b118 * b214 
  + 4 b118 * b216 - 4 b118 * b229 + 4 b119 * b251 - 4 b119 * b252 - 4 b119 * b254 + 4 b119 * b359 - 4 b120 * b126 
  + 4 b120 * b233 - 4 b120 * b256 + 4 b120 * b427 - 4 b121 * b238 + 4 b121 * b311 - 4 b121 * b437 + 4 b122 * b142 
  + 4 b122 * b214 - 4 b122 * b265 - 4 b122 * b491 + 4 b123 * b138 - 4 b123 * b353 + 4 b124 * b353 - 4 b124 * b354 
  - 4 b124 * b357 - 4 b125 * b232 - 4 b125 * b253 + 4 b125 * b328 + 4 b126 * b127 - 4 b126 * b467 + 4 b127 * b328 
  - 4 b127 * b329 - 4 b127 * b332 - 4 b128 * b222 + 4 b128 * b337 - 4 b128 * b401 + 4 b129 * b407 + 4 b129 * b480 
  - 4 b129 * b481 - 4 b129 * b484 + 4 b130 * b137 + 4 b130 * b227 - 4 b130 * b244 - 4 b130 * b452 + 4 b131 * b132 
  - 4 b131 * b269 + 4 b131 * b386 - 4 b131 * b387 - 4 b132 * b458 - 4 b133 * b219 - 4 b133 * b273 + 4 b133 * b301 
  + 4 b134 * b301 - 4 b134 * b302 - 4 b134 * b304 + 4 b135 * b237 - 4 b135 * b238 - 4 b135 * b372 + 4 b135 * b441 
  + 4 b136 * b441 - 4 b136 * b442 + 4 b136 * b444 - 4 b136 * b445 - 4 b137 * b410 - 4 b137 * b412 - 4 b138 * b297 
  + 4 b138 * b421 - 4 b138 * b422 + 4 b139 * b273 - 4 b139 * b274 - 4 b139 * b276 + 4 b140 * b466 - 4 b140 * b467 
  - 4 b140 * b469 + 4 b141 * b405 - 4 b141 * b406 - 4 b141 * b408 + 4 b141 * b483 - 4 b142 * b378 - 4 b142 * b381 
  + 4 b143 * b253 - 4 b143 * b254 - 4 b143 * b255 - 4 b144 * b161 + 4 b144 * b234 + 4 b144 * b428 - 4 b144 * b429 
  + 4 b145 * b243 - 4 b145 * b346 - 4 b145 * b349 - 4 b146 * b167 + 4 b146 * b258 + 4 b146 * b393 - 4 b146 * b394 
  + 4 b147 * b151 - 4 b147 * b366 - 4 b147 * b438 + 4 b147 * b476 + 4 b148 * b261 + 4 b148 * b476 - 4 b148 * b477 
  - 4 b148 * b479 - 4 b149 * b318 - 4 b149 * b319 + 4 b150 * b272 + 4 b150 * b460 - 4 b150 * b461 - 4 b150 * b462 
  + 4 b151 * b335 - 4 b151 * b337 + 4 b152 * b284 + 4 b152 * b438 - 4 b152 * b440 + 4 b153 * b300 + 4 b153 * b421 
  - 4 b153 * b422 - 4 b153 * b423 - 4 b154 * b307 - 4 b154 * b334 + 4 b154 * b469 + 4 b155 * b313 + 4 b155 * b402 
  - 4 b155 * b404 + 4 b156 * b157 - 4 b156 * b314 - 4 b156 * b408 + 4 b157 * b316 - 4 b157 * b375 - 4 b157 * b482 
  + 4 b158 * b327 + 4 b158 * b386 - 4 b158 * b387 - 4 b158 * b389 + 4 b159 * b161 - 4 b159 * b333 - 4 b159 * b469 
  + 4 b160 * b161 - 4 b160 * b334 - 4 b160 * b363 - 4 b161 * b470 + 4 b162 * b339 + 4 b162 * b369 - 4 b162 * b371 
  + 4 b163 * b164 - 4 b163 * b351 - 4 b164 * b171 + 4 b164 * b495 - 4 b164 * b496 + 4 b165 * b465 - 4 b165 * b467 
  + 4 b166 * b167 - 4 b166 * b363 - 4 b166 * b396 + 4 b167 * b395 - 4 b167 * b431 - 4 b168 * b383 + 4 b168 * b497 
  + 4 b169 * b394 + 4 b169 * b426 - 4 b169 * b429 + 4 b170 * b410 + 4 b170 * b485 - 4 b170 * b486 - 4 b170 * b489 
  + 4 b171 * b497 + 4 b172 * b380 - 4 b172 * b414 - 4 b173 * b278 - 4 b174 * b257 - 4 b176 * b234 - 4 b176 * b306 
  + 4 b176 * b430 + 4 b177 * b202 - 4 b177 * b208 - 4 b178 * b182 - 4 b178 * b188 - 4 b179 * b258 - 4 b179 * b281 
  - 4 b179 * b306 + 4 b179 * b468 + 4 b180 * b335 - 4 b180 * b400 - 4 b180 * b434 + 4 b181 * b197 - 4 b181 * b218 
  - 4 b182 * b279 - 4 b182 * b281 + 4 b183 * b364 - 4 b183 * b367 - 4 b183 * b473 - 4 b184 * b262 + 4 b184 * b441 
  - 4 b185 * b195 - 4 b185 * b417 - 4 b186 * b285 - 4 b186 * b314 + 4 b186 * b480 - 4 b187 * b299 + 4 b187 * b326 
  + 4 b187 * b459 - 4 b188 * b429 - 4 b189 * b239 - 4 b189 * b315 - 4 b189 * b340 - 4 b190 * b206 - 4 b191 * b271 
  + 4 b191 * b356 + 4 b191 * b420 + 4 b192 * b362 - 4 b192 * b467 - 4 b192 * b468 - 4 b193 * b262 - 4 b193 * b341 
  - 4 b193 * b373 + 4 b194 * b239 - 4 b194 * b241 - 4 b194 * b341 - 4 b195 * b196 + 4 b195 * b228 - 4 b195 * b294 
  - 4 b196 * b216 - 4 b197 * b251 + 4 b197 * b385 + 4 b197 * b388 - 4 b198 * b285 - 4 b198 * b374 - 4 b198 * b406 
  - 4 b199 * b213 - 4 b199 * b264 - 4 b199 * b374 - 4 b200 * b201 + 4 b200 * b215 - 4 b200 * b321 - 4 b201 * b229 
  + 4 b202 * b354 - 4 b203 * b315 - 4 b203 * b407 - 4 b203 * b442 - 4 b204 * b226 - 4 b204 * b287 - 4 b204 * b407 
  + 4 b205 * b206 - 4 b205 * b227 - 4 b205 * b246 - 4 b206 * b207 - 4 b206 * b495 - 4 b207 * b246 + 4 b208 * b325 
  - 4 b209 * b210 - 4 b209 * b220 - 4 b209 * b309 - 4 b210 * b221 - 4 b210 * b237 + 4 b210 * b368 - 4 b211 * b341 
  - 4 b211 * b444 - 4 b211 * b481 - 4 b212 * b241 - 4 b212 * b317 - 4 b212 * b444 - 4 b213 * b446 - 4 b214 * b215 
  - 4 b214 * b291 - 4 b215 * b244 - 4 b215 * b267 - 4 b216 * b217 - 4 b216 * b455 - 4 b217 * b267 - 4 b218 * b219 
  + 4 b218 * b298 - 4 b218 * b388 + 4 b219 * b421 - 4 b220 * b222 - 4 b220 * b310 + 4 b220 * b403 - 4 b221 * b223 
  - 4 b222 * b223 - 4 b223 * b405 - 4 b224 * b374 - 4 b224 * b483 - 4 b225 * b264 - 4 b225 * b344 - 4 b225 * b483 
  - 4 b226 * b288 - 4 b227 * b228 - 4 b227 * b319 - 4 b228 * b265 - 4 b228 * b295 - 4 b229 * b230 - 4 b229 * b415 
  - 4 b230 * b295 - 4 b231 * b232 + 4 b231 * b270 - 4 b231 * b356 + 4 b232 * b460 - 4 b233 * b234 - 4 b234 * b259 
  - 4 b235 * b259 - 4 b235 * b308 - 4 b236 * b238 - 4 b236 * b283 + 4 b236 * b439 - 4 b239 * b240 - 4 b240 * b287 
  - 4 b240 * b376 + 4 b240 * b484 + 4 b242 * b243 - 4 b243 * b292 - 4 b244 * b245 - 4 b244 * b349 - 4 b245 * b292 
  - 4 b245 * b322 - 4 b246 * b247 - 4 b246 * b456 - 4 b247 * b322 - 4 b248 * b249 - 4 b248 * b353 + 4 b249 * b250 
  - 4 b249 * b352 - 4 b249 * b355 - 4 b250 * b252 - 4 b250 * b326 + 4 b251 * b387 - 4 b252 * b355 - 4 b255 * b393 
  - 4 b256 * b258 - 4 b256 * b278 - 4 b257 * b277 + 4 b257 * b280 - 4 b258 * b280 - 4 b259 * b260 - 4 b260 * b280 
  - 4 b260 * b364 + 4 b260 * b433 + 4 b261 * b480 - 4 b262 * b263 - 4 b263 * b317 - 4 b263 * b409 + 4 b263 * b445 
  - 4 b264 * b488 - 4 b265 * b266 - 4 b265 * b381 - 4 b266 * b320 - 4 b266 * b351 - 4 b267 * b268 - 4 b267 * b496 
  - 4 b268 * b351 - 4 b269 * b270 - 4 b270 * b384 - 4 b270 * b460 + 4 b271 * b272 + 4 b271 * b422 - 4 b272 * b274 
  + 4 b272 * b390 - 4 b275 * b303 + 4 b275 * b362 - 4 b276 * b362 - 4 b277 * b279 + 4 b278 * b305 - 4 b279 * b305 
  + 4 b279 * b395 - 4 b280 * b282 + 4 b281 * b335 - 4 b282 * b305 - 4 b282 * b335 + 4 b282 * b472 - 4 b283 * b398 
  + 4 b283 * b438 - 4 b285 * b286 - 4 b285 * b446 - 4 b286 * b344 + 4 b286 * b408 - 4 b286 * b448 - 4 b287 * b289 
  - 4 b288 * b290 - 4 b288 * b449 - 4 b289 * b290 - 4 b289 * b448 - 4 b289 * b490 - 4 b290 * b291 - 4 b291 * b350 
  - 4 b292 * b294 - 4 b292 * b412 + 4 b293 * b322 - 4 b293 * b383 + 4 b293 * b494 - 4 b294 * b350 - 4 b294 * b383 
  - 4 b295 * b296 - 4 b296 * b383 - 4 b297 * b298 - 4 b298 * b419 - 4 b298 * b421 + 4 b299 * b300 + 4 b299 * b461 
  - 4 b300 * b302 + 4 b300 * b424 - 4 b303 * b304 - 4 b303 * b391 + 4 b303 * b424 - 4 b305 * b307 - 4 b308 * b309 
  + 4 b308 * b334 - 4 b308 * b435 - 4 b309 * b311 + 4 b310 * b402 - 4 b310 * b435 - 4 b311 * b399 - 4 b311 * b402 
  + 4 b312 * b313 + 4 b312 * b476 - 4 b313 * b314 - 4 b315 * b316 - 4 b316 * b376 - 4 b316 * b487 - 4 b317 * b318 
  - 4 b318 * b451 - 4 b318 * b487 - 4 b319 * b382 - 4 b320 * b321 - 4 b320 * b453 - 4 b321 * b382 - 4 b321 * b416 
  - 4 b322 * b323 - 4 b323 * b416 - 4 b324 * b325 - 4 b324 * b458 - 4 b325 * b386 - 4 b325 * b457 + 4 b326 * b327 
  - 4 b327 * b329 + 4 b327 * b463 - 4 b330 * b332 - 4 b330 * b425 + 4 b330 * b463 - 4 b331 * b333 + 4 b331 * b428 
  - 4 b332 * b333 + 4 b336 * b369 - 4 b337 * b369 - 4 b337 * b436 + 4 b338 * b339 + 4 b338 * b438 - 4 b339 * b340 
  - 4 b340 * b443 - 4 b341 * b343 - 4 b342 * b343 - 4 b342 * b443 - 4 b342 * b446 - 4 b343 * b345 - 4 b343 * b409 
  - 4 b344 * b346 - 4 b345 * b346 - 4 b345 * b447 - 4 b346 * b411 + 4 b347 * b349 - 4 b347 * b410 + 4 b348 * b413 
  + 4 b348 * b451 - 4 b349 * b413 - 4 b350 * b492 - 4 b350 * b495 + 4 b351 * b414 - 4 b352 * b354 - 4 b353 * b355 
  - 4 b355 * b357 + 4 b356 * b358 - 4 b357 * b358 - 4 b358 * b360 - 4 b358 * b463 - 4 b359 * b462 + 4 b359 * b465 
  - 4 b360 * b465 + 4 b361 * b466 + 4 b362 * b395 - 4 b363 * b365 + 4 b364 * b366 - 4 b365 * b366 - 4 b366 * b368 
  - 4 b368 * b474 + 4 b369 * b403 + 4 b370 * b371 + 4 b370 * b402 - 4 b371 * b373 + 4 b372 * b482 - 4 b373 * b482 
  - 4 b374 * b375 - 4 b375 * b377 - 4 b375 * b448 - 4 b376 * b378 - 4 b377 * b378 - 4 b377 * b486 - 4 b378 * b379 
  + 4 b379 * b381 + 4 b380 * b411 + 4 b380 * b454 - 4 b381 * b454 - 4 b382 * b455 - 4 b384 * b385 - 4 b385 * b387 
  + 4 b388 * b389 - 4 b389 * b391 - 4 b389 * b424 - 4 b390 * b423 + 4 b390 * b426 - 4 b391 * b426 - 4 b392 * b394 
  + 4 b392 * b426 - 4 b396 * b397 - 4 b396 * b431 - 4 b396 * b472 - 4 b397 * b399 + 4 b398 * b401 - 4 b399 * b401 
  + 4 b403 * b404 - 4 b404 * b406 - 4 b407 * b485 - 4 b408 * b485 - 4 b409 * b410 + 4 b411 * b412 - 4 b412 * b493 
  - 4 b413 * b415 - 4 b413 * b495 - 4 b414 * b417 - 4 b415 * b417 - 4 b415 * b493 - 4 b416 * b418 - 4 b417 * b418 
  - 4 b419 * b420 - 4 b420 * b422 - 4 b423 * b425 - 4 b427 * b429 + 4 b427 * b465 + 4 b430 * b470 - 4 b431 * b432 
  - 4 b432 * b433 - 4 b432 * b434 - 4 b432 * b470 + 4 b433 * b436 - 4 b434 * b436 + 4 b435 * b437 - 4 b436 * b437 
  + 4 b439 * b440 - 4 b440 * b442 - 4 b443 * b445 - 4 b444 * b447 - 4 b445 * b447 - 4 b446 * b449 - 4 b447 * b449 
  - 4 b448 * b450 - 4 b449 * b450 - 4 b450 * b452 + 4 b451 * b453 - 4 b452 * b453 - 4 b454 * b455 - 4 b454 * b456 
  + 4 b455 * b497 - 4 b456 * b497 - 4 b457 * b459 + 4 b458 * b460 - 4 b458 * b461 - 4 b459 * b461 - 4 b462 * b464 
  - 4 b470 * b471 - 4 b471 * b473 + 4 b472 * b474 - 4 b473 * b474 - 4 b474 * b475 - 4 b475 * b476 - 4 b475 * b477 
  - 4 b477 * b478 + 4 b478 * b479 - 4 b479 * b480 - 4 b479 * b481 - 4 b482 * b484 - 4 b483 * b486 - 4 b484 * b486 
  - 4 b485 * b487 - 4 b487 * b489 + 4 b488 * b491 - 4 b489 * b491 + 4 b490 * b492 - 4 b491 * b492 - 4 b492 * b494 
  - 4 b493 * b496 - 4 b494 * b496 ]/2

Subject To

Binary
 b2 b3 b4 b5 b6 b7 b8 b9 b10 b11 b12 b13 b14 b15 b16 b17 b18 b19 b20 b21 b22 b23 b24 b25 b26
 b27 b28 b29 b30 b31 b32 b33 b34 b35 b36 b37 b38 b39 b40 b41 b42 b43 b44 b45 b46 b47 b48 b49
 b50 b51 b52 b53 b54 b55 b56 b57 b58 b59 b60 b61 b62 b63 b64 b65 b66 b67 b68 b69 b70 b71 b72
 b73 b74 b75 b76 b77 b78 b79 b80 b81 b82 b83 b84 b85 b86 b87 b88 b89 b90 b91 b92 b93 b94 b95
 b96 b97 b98 b99 b100 b101 b102 b103 b104 b105 b106 b107 b108 b109 b110 b111 b112 b113 b114
 b115 b116 b117 b118 b119 b120 b121 b122 b123 b124 b125 b126 b127 b128 b129 b130 b131 b132 b133
 b134 b135 b136 b137 b138 b139 b140 b141 b142 b143 b144 b145 b146 b147 b148 b149 b150 b151 b152
 b153 b154 b155 b156 b157 b158 b159 b160 b161 b162 b163 b164 b165 b166 b167 b168 b169 b170 b171
 b172 b173 b174 b175 b176 b177 b178 b179 b180 b181 b182 b183 b184 b185 b186 b187 b188 b189 b190
 b191 b192 b193 b194 b195 b196 b197 b198 b199 b200 b201 b202 b203 b204 b205 b206 b207 b208 b209
 b210 b211 b212 b213 b214 b215 b216 b217 b218 b219 b220 b221 b222 b223 b224 b225 b226 b227 b228
 b229 b230 b231 b232 b233 b234 b235 b236 b237 b238 b239 b240 b241 b242 b243 b244 b245 b246 b247
 b248 b249 b250 b251 b252 b253 b254 b255 b256 b257 b258 b259 b260 b261 b262 b263 b264 b265 b266
 b267 b268 b269 b270 b271 b272 b273 b274 b275 b276 b277 b278 b279 b280 b281 b282 b283 b284 b285
 b286 b287 b288 b289 b290 b291 b292 b293 b294 b295 b296 b297 b298 b299 b300 b301 b302 b303 b304
 b305 b306 b307 b308 b309 b310 b311 b312 b313 b314 b315 b316 b317 b318 b319 b320 b321 b322 b323
 b324 b325 b326 b327 b328 b329 b330 b331 b332 b333 b334 b335 b336 b337 b338 b339 b340 b341 b342
 b343 b344 b345 b346 b347 b348 b349 b350 b351 b352 b353 b354 b355 b356 b357 b358 b359 b360 b361
 b362 b363 b364 b365 b366 b367 b368 b369 b370 b371 b372 b373 b374 b375 b376 b377 b378 b379 b380
 b381 b382 b383 b384 b385 b386 b387 b388 b389 b390 b391 b392 b393 b394 b395 b396 b397 b398 b399
 b400 b401 b402 b403 b404 b405 b406 b407 b408 b409 b410 b411 b412 b413 b414 b415 b416 b417 b418
 b419 b420 b421 b422 b423 b424 b425 b426 b427 b428 b429 b430 b431 b432 b433 b434 b435 b436 b437
 b438 b439 b440 b441 b442 b443 b444 b445 b446 b447 b448 b449 b450 b451 b452 b453 b454 b455 b456
 b457 b458 b459 b460 b461 b462 b463 b464 b465 b466 b467 b468 b469 b470 b471 b472 b473 b474 b475
 b476 b477 b478 b479 b480 b481 b482 b483 b484 b485 b486 b487 b488 b489 b490 b491 b492 b493 b494
 b495 b496 b497

End
